<instance format="XCSP3" type="TCSP">
  <variables>
    <var id="x0" type="point"/> 
    <var id="x1" type="point"/>
    <var id="x2" type="point"/> 
    <var id="x3" type="point"/> 
    <var id="x4" type="point"/>
  </variables>   
  <constraints>
    <dbd> 
      <scope> x0 x1 </scope>
      <intervals> [10,20] </intervals> 
    </dbd>
    <dbd> 
      <scope> x1 x2 </scope>
      <intervals> [30,40] [60,+infinity[ </intervals> 
    </dbd>
    <dbd> 
      <scope> x3 x4 </scope>
      <intervals> [20,30] [40,50] </intervals> 
    </dbd>
    <dbd> 
      <scope> x3 x2 </scope>
      <intervals> [10,20] </intervals> 
    </dbd>
    <dbd> 
      <scope> x0 x4 </scope>
      <intervals> [60,70] </intervals> 
    </dbd>
  </constraints>
</instance>
